WARNING: for repeatability, setting FPU to use double precision
============================[ Problem Statistics ]=============================
|                                                                             |
|  Number of variables:        433078                                         |
|  Number of clauses:         1850720                                         |
|  Parse time:                   0.55 s                                       |
|                                                                             |
c ============================[ Search Statistics ]==============================
c | Conflicts |          ORIGINAL         |          LEARNT          | Progress |
c |           |    Vars  Clauses Literals |    Limit  Clauses Lit/Cl |          |
c ===============================================================================
We had 25 decisions of which only 0 were on extended
We had 129569 decisions of which only 0 were on extended
c Switched to VSIDS.
We had 173038 decisions of which only 0.00288954 were on extended
We had 214477 decisions of which only 0.0923176 were on extended
c Switched to LRB.
We had 251808 decisions of which only 0.618725 were on extended
We had 288155 decisions of which only 2.12906 were on extended
c Switched to VSIDS.
c Switched to LRB.
c Switched to VSIDS.
c Switched to LRB.
c Switched to VSIDS.
c Switched to LRB.
We had 305030 decisions of which only 2.02013 were on extended
c Switched to VSIDS.
c Switched to LRB.
c Switched to VSIDS.
c Switched to LRB.
c Switched to VSIDS.
We had 318726 decisions of which only 1.93395 were on extended
c Switched to LRB.
c Switched to VSIDS.
We had 331052 decisions of which only 1.86225 were on extended
c Switched to LRB.
c Switched to VSIDS.
We had 344033 decisions of which only 1.79227 were on extended
c Switched to LRB.
c Switched to VSIDS.
c Switched to LRB.
We had 357692 decisions of which only 1.72383 were on extended
c Switched to VSIDS.
c Switched to LRB.
We had 370492 decisions of which only 1.66454 were on extended
c Switched to VSIDS.
We had 382904 decisions of which only 1.61189 were on extended
c Switched to LRB.
We had 395103 decisions of which only 1.56288 were on extended
c Switched to VSIDS.
We had 408600 decisions of which only 1.51248 were on extended
c ===============================================================================
restarts                  : 364
conflicts                 : 141089         (39 /sec)
decisions                 : 409937         (0.00 % random) (114 /sec)
propagations              : 5185792840     (1445248 /sec)
conflict literals         : 11758135       (39.17 % deleted)

conflicts w/ DIP found    : 110102         (78.04 % of conflicts)
conflicts w/ dangerous DIP: 0              (0.00 % of conflicts)
conflicts w/ DIP-learning : 223            (0.16 % of conflicts)
decisions on ext vars     : 6182           (1.51 % of decisions)
total ext vars            : 41          
tried delete ext vars     : 13          
deleted ext vars          : 13          
max ext vars              : 28          

Memory used               : 330.00 MB
CPU time                  : 3588.17 s
DIP computation time      : 2.5187 s (0.07 % of total time)
ER_sel time               : 0.1729 s
ER_add time               : 0.00104 s
ER_delC time              : 0 s
ER_delV time              : 0.001792 s
ER_sub time               : 0.35054 s
ER_stat time              : 0 s

INDETERMINATE
